0 53 58 40 21 73 72 74 41 22 75 56 23 39 25 55 4 54 24 29 3 77 68 80 12 26 28 27 0
0 6 94 95 97 92 59 96 99 93 98 37 100 91 85 61 16 44 38 14 42 43 15 57 2 13 0
0 52 18 60 5 84 17 45 8 46 48 47 36 49 19 62 31 70 30 20 51 9 35 34 33 50 1 69 0
